; benchmark generated from python API
(set-info :status unknown)
(declare-fun x_days () Int)
(declare-fun y_days () Int)
(assert
 (>= x_days (- 36584)))
(assert
 (<= x_days 36829))
(assert
 (>= y_days (- 36584)))
(assert
 (<= y_days 36829))
(assert
 (= x_days 8371))
(assert
 (let ((?x448 (+ x_days 730179)))
 (let ((?x665 (mod ?x448 146097)))
 (let ((?x3693 (div ?x665 36524)))
 (let ((?x431 (ite (<= 4 ?x3693) 3 ?x3693)))
 (let ((?x3191 (- ?x665 (* ?x431 36524))))
 (let ((?x2601 (mod ?x3191 1461)))
 (let ((?x1471 (div ?x2601 365)))
 (let ((?x556 (ite (<= 4 ?x1471) 3 ?x1471)))
 (let ((?x3281 (+ (+ (* (div ?x448 146097) 400) (* ?x431 100)) (* (div ?x3191 1461) 4))))
 (let ((?x2372 (+ (+ ?x3281 ?x556) 1)))
 (let (($x1924 (or (and (= (mod ?x2372 4) 0) (and (distinct (mod ?x2372 100) 0) true)) (= (mod ?x2372 400) 0))))
 (let ((?x3122 (- ?x2601 (* ?x556 365))))
 (let ((?x3061 (ite $x1924 31 31)))
 (let (($x3479 (>= ?x3122 ?x3061)))
 (let ((?x4786 (ite $x3479 (+ (- ?x3122 ?x3061) 1) (+ (- ?x3122 (ite $x1924 0 0)) 1))))
 (let ((?x1070 (ite $x1924 60 59)))
 (let (($x4210 (>= ?x3122 ?x1070)))
 (let ((?x555 (ite $x1924 91 90)))
 (let (($x2283 (>= ?x3122 ?x555)))
 (let ((?x3588 (ite $x2283 (+ (- ?x3122 ?x555) 1) (ite $x4210 (+ (- ?x3122 ?x1070) 1) ?x4786))))
 (let ((?x2135 (ite $x1924 121 120)))
 (let (($x1383 (>= ?x3122 ?x2135)))
 (let ((?x3638 (ite $x1924 152 151)))
 (let (($x3476 (>= ?x3122 ?x3638)))
 (let ((?x3676 (ite $x3476 (+ (- ?x3122 ?x3638) 1) (ite $x1383 (+ (- ?x3122 ?x2135) 1) ?x3588))))
 (let ((?x3649 (ite $x1924 182 181)))
 (let (($x3576 (>= ?x3122 ?x3649)))
 (let ((?x3656 (ite $x1924 213 212)))
 (let (($x1433 (>= ?x3122 ?x3656)))
 (let ((?x2065 (ite $x1433 (+ (- ?x3122 ?x3656) 1) (ite $x3576 (+ (- ?x3122 ?x3649) 1) ?x3676))))
 (let ((?x3075 (ite $x1924 244 243)))
 (let (($x4595 (>= ?x3122 ?x3075)))
 (let ((?x2045 (ite $x1924 274 273)))
 (let (($x4598 (>= ?x3122 ?x2045)))
 (let ((?x2181 (ite $x4598 (+ (- ?x3122 ?x2045) 1) (ite $x4595 (+ (- ?x3122 ?x3075) 1) ?x2065))))
 (let ((?x2918 (ite $x1924 305 304)))
 (let (($x2195 (>= ?x3122 ?x2918)))
 (let ((?x4146 (ite $x1924 335 334)))
 (let (($x2468 (>= ?x3122 ?x4146)))
 (let ((?x528 (ite $x2468 (+ (- ?x3122 ?x4146) 1) (ite $x2195 (+ (- ?x3122 ?x2918) 1) ?x2181))))
 (let ((?x4625 (ite $x1383 5 (ite $x2283 4 (ite $x4210 3 (ite $x3479 2 1))))))
 (let ((?x4594 (ite $x4595 9 (ite $x1433 8 (ite $x3576 7 (ite $x3476 6 ?x4625))))))
 (let ((?x817 (+ (ite $x2468 12 (ite $x2195 11 (ite $x4598 10 ?x4594))) (+ (* 0 12) 3))))
 (let ((?x1847 (- ?x817 1)))
 (let ((?x3151 (+ (mod ?x1847 12) 1)))
 (let ((?x4252 (ite (or (= ?x3151 4) (= ?x3151 6) (= ?x3151 9) (= ?x3151 11)) 30 31)))
 (let (($x2301 (and (= (mod (+ ?x2372 (+ 0 (div ?x1847 12))) 4) 0) (and (distinct (mod (+ ?x2372 (+ 0 (div ?x1847 12))) 100) 0) true))))
 (let (($x3472 (or $x2301 (= (mod (+ ?x2372 (+ 0 (div ?x1847 12))) 400) 0))))
 (let ((?x4046 (ite (= ?x3151 2) (ite $x3472 29 28) ?x4252)))
 (let ((?x2728 (ite (> 1 ?x528) 1 (ite (> ?x528 ?x4046) ?x4046 ?x528))))
 (let ((?x4604 (ite (> 1 ?x2728) 1 (ite (> ?x2728 ?x4046) ?x4046 ?x2728))))
 (let ((?x2052 (ite (= 2 ?x3151) (ite $x3472 31 31) (ite (= 1 ?x3151) (ite $x3472 0 0) 0))))
 (let ((?x4410 (ite (= 4 ?x3151) (ite $x3472 91 90) (ite (= 3 ?x3151) (ite $x3472 60 59) ?x2052))))
 (let ((?x2222 (ite (= 6 ?x3151) (ite $x3472 152 151) (ite (= 5 ?x3151) (ite $x3472 121 120) ?x4410))))
 (let ((?x4316 (ite (= 8 ?x3151) (ite $x3472 213 212) (ite (= 7 ?x3151) (ite $x3472 182 181) ?x2222))))
 (let ((?x4588 (ite (= 10 ?x3151) (ite $x3472 274 273) (ite (= 9 ?x3151) (ite $x3472 244 243) ?x4316))))
 (let ((?x2340 (ite (= 12 ?x3151) (ite $x3472 335 334) (ite (= 11 ?x3151) (ite $x3472 305 304) ?x4588))))
 (let ((?x3436 (+ (* 365 (- (+ ?x2372 (+ 0 (div ?x1847 12))) 1)) (div (- (+ ?x2372 (+ 0 (div ?x1847 12))) 1) 4))))
 (let ((?x2881 (+ (- ?x3436 (div (- (+ ?x2372 (+ 0 (div ?x1847 12))) 1) 100)) (div (- (+ ?x2372 (+ 0 (div ?x1847 12))) 1) 400))))
 (let ((?x417 (+ (+ (- (+ (+ ?x2881 ?x2340) (- ?x4604 1)) 730179) 0) 730179)))
 (let ((?x1059 (mod ?x417 146097)))
 (let ((?x1790 (div ?x1059 36524)))
 (let ((?x3140 (ite (<= 4 ?x1790) 3 ?x1790)))
 (let ((?x1798 (- ?x1059 (* ?x3140 36524))))
 (let ((?x2579 (mod ?x1798 1461)))
 (let ((?x4402 (div ?x2579 365)))
 (let ((?x2571 (ite (<= 4 ?x4402) 3 ?x4402)))
 (let ((?x2207 (+ (+ (* (div ?x417 146097) 400) (* ?x3140 100)) (* (div ?x1798 1461) 4))))
 (let ((?x3212 (+ (+ ?x2207 ?x2571) 1)))
 (let (($x3616 (or (and (= (mod ?x3212 4) 0) (and (distinct (mod ?x3212 100) 0) true)) (= (mod ?x3212 400) 0))))
 (let ((?x2494 (- ?x2579 (* ?x2571 365))))
 (let ((?x3637 (ite $x3616 31 31)))
 (let (($x4685 (>= ?x2494 ?x3637)))
 (let ((?x1801 (ite $x4685 (+ (- ?x2494 ?x3637) 1) (+ (- ?x2494 (ite $x3616 0 0)) 1))))
 (let ((?x4118 (ite $x3616 60 59)))
 (let (($x3595 (>= ?x2494 ?x4118)))
 (let ((?x3502 (ite $x3616 91 90)))
 (let (($x3577 (>= ?x2494 ?x3502)))
 (let ((?x2245 (ite $x3577 (+ (- ?x2494 ?x3502) 1) (ite $x3595 (+ (- ?x2494 ?x4118) 1) ?x1801))))
 (let ((?x4263 (ite $x3616 121 120)))
 (let (($x3474 (>= ?x2494 ?x4263)))
 (let ((?x4228 (ite $x3616 152 151)))
 (let (($x3271 (>= ?x2494 ?x4228)))
 (let ((?x2143 (ite $x3271 (+ (- ?x2494 ?x4228) 1) (ite $x3474 (+ (- ?x2494 ?x4263) 1) ?x2245))))
 (let ((?x4061 (ite $x3616 182 181)))
 (let (($x3512 (>= ?x2494 ?x4061)))
 (let ((?x3811 (ite $x3616 213 212)))
 (let (($x1697 (>= ?x2494 ?x3811)))
 (let ((?x249 (ite $x1697 (+ (- ?x2494 ?x3811) 1) (ite $x3512 (+ (- ?x2494 ?x4061) 1) ?x2143))))
 (let ((?x4028 (ite $x3616 244 243)))
 (let (($x3547 (>= ?x2494 ?x4028)))
 (let ((?x4696 (ite $x3616 274 273)))
 (let (($x450 (>= ?x2494 ?x4696)))
 (let ((?x4746 (ite $x450 (+ (- ?x2494 ?x4696) 1) (ite $x3547 (+ (- ?x2494 ?x4028) 1) ?x249))))
 (let ((?x2993 (ite $x3616 305 304)))
 (let (($x4068 (>= ?x2494 ?x2993)))
 (let ((?x691 (ite $x3616 335 334)))
 (let (($x649 (>= ?x2494 ?x691)))
 (let ((?x459 (ite $x649 (+ (- ?x2494 ?x691) 1) (ite $x4068 (+ (- ?x2494 ?x2993) 1) ?x4746))))
 (let (($x1367 (= 0 0)))
 (let (($x3447 (= (mod (ite $x1367 (+ ?x2372 (+ 0 (div ?x1847 12))) ?x3212) 400) 0)))
 (let (($x4135 (and (distinct (mod (ite $x1367 (+ ?x2372 (+ 0 (div ?x1847 12))) ?x3212) 100) 0) true)))
 (let (($x4675 (= (mod (ite $x1367 (+ ?x2372 (+ 0 (div ?x1847 12))) ?x3212) 4) 0)))
 (let (($x4618 (or (and $x4675 $x4135) $x3447)))
 (let ((?x3543 (ite $x3474 5 (ite $x3577 4 (ite $x3595 3 (ite $x4685 2 1))))))
 (let ((?x4168 (ite $x3547 9 (ite $x1697 8 (ite $x3512 7 (ite $x3271 6 ?x3543))))))
 (let ((?x3333 (ite $x1367 ?x3151 (ite $x649 12 (ite $x4068 11 (ite $x450 10 ?x4168))))))
 (let ((?x4200 (ite (= 2 ?x3333) (ite $x4618 31 31) (ite (= 1 ?x3333) (ite $x4618 0 0) 0))))
 (let ((?x4330 (ite (= 4 ?x3333) (ite $x4618 91 90) (ite (= 3 ?x3333) (ite $x4618 60 59) ?x4200))))
 (let ((?x4808 (ite (= 6 ?x3333) (ite $x4618 152 151) (ite (= 5 ?x3333) (ite $x4618 121 120) ?x4330))))
 (let ((?x4478 (ite (= 8 ?x3333) (ite $x4618 213 212) (ite (= 7 ?x3333) (ite $x4618 182 181) ?x4808))))
 (let ((?x4128 (ite (= 10 ?x3333) (ite $x4618 274 273) (ite (= 9 ?x3333) (ite $x4618 244 243) ?x4478))))
 (let ((?x2142 (ite (= 12 ?x3333) (ite $x4618 335 334) (ite (= 11 ?x3333) (ite $x4618 305 304) ?x4128))))
 (let ((?x1300 (+ ?x2372 (+ 0 (div ?x1847 12)))))
 (let ((?x1793 (ite $x1367 ?x1300 ?x3212)))
 (let ((?x3557 (- ?x1793 1)))
 (let ((?x3589 (+ (- (+ (* 365 ?x3557) (div ?x3557 4)) (div ?x3557 100)) (div ?x3557 400))))
 (= y_days (- (+ (+ ?x3589 ?x2142) (- (ite $x1367 ?x4604 ?x459) 1)) 730179))))))))))))))))))))))))))))))))))))))))))))))))))))))))))))))))))))))))))))))))))))))))))))))))))))))))))))))))))))))))
(assert
 (= y_days 8460))
(assert
 (= x_days 8371))
(assert
 (= y_days 8460))
(check-sat)
